log T-${T}.lam-${lambda}.bmh2lj.log
atom_style charge
units real
boundary p p p
read_data T-${T}.nvt_eq.data
# this should be a system that was equilibrated for a looong time at constant volume
# depending on the specific pathway it may be better to read in a configuration from the prior lambda value
variable lam equal ${lambda}
variable opp equal 1-${lambda}

# system specific
group F type 1
group Li type 2
group Na type 3
group K type 4
mass 1 18.9984
mass 2 6.941
mass 3 22.9898
mass 4 39.0983

# put all scaling of relevant params into a separate script
include bmh2lj.params

# relevant energy computes
variable nall equal count(all)
compute bmh all pair born/coul/long epair
compute lj all pair lj/cut epair
variable dUdl equal c_lj-c_bmh
variable tdf equal v_dUdl/v_nall

thermo 10
thermo_style custom step v_lam atoms pe ecoul evdwl press c_bmh c_lj v_tdf vol
thermo_modify norm no
# only uncomment this for debugging
#dump 0 all custom 100 T-${T}.lam-${lambda}.bmh2lj.dump id type x y z


velocity all create ${T} 35645234
timestep 1.2
fix 0 all nvt temp ${T} ${T} $(40*dt)
run 10000 # confirm whether properties are well equilibrated or not for this number of timesteps

write_data T-${T}.lam-${lambda}.bmh2lj.data nofix nocoeff
# really you only need the lambda=1 configs for next step along pathway
