# note that all that's happening here is you're scaling down both epsilon AND sigma 
# so you're effectively shrinking these LJ spheres into point particles over the course of this step
# this avoids the supposed catastrophe that occurs when you only scale down the energy term

pair_style hybrid/scaled v_opp lj/cut 12.0
pair_coeff * * lj/cut 0.001 2.2
