log T-${T}.lam-${lambda}.lj2ideal.log
atom_style charge
units real
boundary p p p
read_data T-${T}.lam-1.0.bmh2lj.data
variable lam equal ${lambda}
variable opp equal 1-${lambda}

# system specific
mass 1 18.9984
mass 2 6.941
mass 3 22.9898
mass 4 39.0983

include lj2ideal.params

# relevant energy computes
variable nall equal count(all)
compute lj all pair lj/cut epair
variable dUdl equal -1*c_thermo_pe
variable tdf equal v_dUdl/v_nall

thermo 10
thermo_style custom step v_lam atoms pe ecoul evdwl press c_lj v_tdf vol
thermo_modify norm no
# only uncomment this for debugging
#dump 0 all custom 100 T-${T}.lam-${lambda}.lj2ideal.dump id type x y z


velocity all create ${T} 35645234
timestep 1.2
fix 0 all nvt temp ${T} ${T} $(40*dt)
run 10000

write_data T-${T}.lam-${lambda}.lj2ideal.data nofix nocoeff
